max_width = 60;
n_blocks = 73;
width = [33, 25, 16, 21, 12, 34, 14, 25, 9, 12, 23, 10, 10, 16, 12, 21, 14, 6, 5, 10, 14, 14, 16, 16, 6, 11, 8, 14, 13, 21, 6, 6, 3, 16, 12, 6, 6, 4, 13, 6, 6, 12, 12, 5, 7, 5, 6, 6, 3, 3, 5, 2, 8, 11, 7, 3, 3, 2, 2, 2, 4, 3, 4, 6, 6, 3, 3, 6, 3, 2, 4, 3, 2];
height = [14, 15, 18, 12, 18, 6, 13, 7, 18, 13, 6, 12, 12, 7, 9, 5, 7, 15, 18, 9, 6, 6, 5, 5, 13, 7, 9, 5, 5, 3, 9, 9, 18, 3, 4, 7, 7, 10, 3, 6, 6, 3, 3, 7, 5, 7, 5, 5, 9, 9, 5, 12, 3, 2, 3, 7, 7, 10, 9, 9, 4, 5, 3, 2, 2, 2, 2, 1, 2, 3, 1, 1, 1];
